cases/matpower/case5_asym.m
ipopt
DCP
[info | PowerModels]: removing 1 cost terms from generator 4: [4000.0, 0.0]
[info | PowerModels]: removing 1 cost terms from generator 1: [1400.0, 0.0]
[info | PowerModels]: removing 1 cost terms from generator 5: [1000.0, 0.0]
[info | PowerModels]: removing 1 cost terms from generator 2: [1500.0, 0.0]
[info | PowerModels]: removing 1 cost terms from generator 3: [3000.0, 0.0]

******************************************************************************
This program contains Ipopt, a library for large-scale nonlinear optimization.
 Ipopt is released as open source code under the Eclipse Public License (EPL).
         For more information visit http://projects.coin-or.org/Ipopt
******************************************************************************

This is Ipopt version 3.13.2, running with linear solver mumps.
NOTE: Other linear solvers might be more efficient (see Ipopt documentation).

Number of nonzeros in equality constraint Jacobian...:       36
Number of nonzeros in inequality constraint Jacobian.:       24
Number of nonzeros in Lagrangian Hessian.............:        0

Total number of variables............................:       16
                     variables with only lower bounds:        0
                variables with lower and upper bounds:       11
                     variables with only upper bounds:        0
Total number of equality constraints.................:       12
Total number of inequality constraints...............:       12
        inequality constraints with only lower bounds:        6
   inequality constraints with lower and upper bounds:        0
        inequality constraints with only upper bounds:        6

iter    objective    inf_pr   inf_du lg(mu)  ||d||  lg(rg) alpha_du alpha_pr  ls
   0  1.0059989e+02 3.99e+00 3.51e+01  -1.0 0.00e+00    -  0.00e+00 0.00e+00   0
   1  8.1104723e+03 2.49e+00 1.05e+02  -1.0 2.83e+00    -  3.99e-03 3.77e-01h  1
   2  5.3851488e+03 2.43e+00 1.03e+02  -1.0 5.21e+01    -  2.25e-02 2.07e-02f  1
   3  4.8265458e+03 2.40e+00 1.00e+02  -1.0 2.57e+01    -  1.60e-01 1.55e-02f  1
   4  5.2170202e+03 2.18e+00 9.07e+01  -1.0 7.83e+00    -  3.04e-01 8.89e-02h  1
   5  7.1264803e+03 1.30e+00 5.31e+01  -1.0 6.95e+00    -  5.96e-01 4.05e-01h  1
   6  7.1823985e+03 1.28e+00 5.77e+01  -1.0 3.48e+00    -  1.04e-01 1.11e-02h  1
   7  8.1839507e+03 1.13e+00 4.98e+01  -1.0 1.04e+01    -  6.00e-03 1.18e-01h  1
   8  8.1956422e+03 1.13e+00 5.06e+01  -1.0 7.83e+00    -  6.02e-02 1.57e-03h  1
   9  1.0680398e+04 8.28e-01 4.17e+01  -1.0 3.04e+00    -  2.40e-03 2.68e-01h  1
iter    objective    inf_pr   inf_du lg(mu)  ||d||  lg(rg) alpha_du alpha_pr  ls
  10  1.7493884e+04 1.78e-15 3.23e+01  -1.0 2.32e+00    -  4.70e-01 1.00e+00h  1
  11  1.7492242e+04 8.88e-16 1.00e-06  -1.0 9.11e-02    -  1.00e+00 1.00e+00f  1
  12  1.7480861e+04 1.78e-15 6.93e-02  -2.5 7.03e-02    -  9.89e-01 1.00e+00f  1
  13  1.7480319e+04 1.78e-15 2.83e-08  -2.5 8.97e-02    -  1.00e+00 1.00e+00f  1
  14  1.7479922e+04 1.78e-15 1.50e-09  -3.8 1.95e-02    -  1.00e+00 1.00e+00f  1
  15  1.7479897e+04 1.78e-15 1.84e-11  -5.7 1.76e-03    -  1.00e+00 1.00e+00f  1
  16  1.7479897e+04 1.78e-15 1.97e-13  -8.6 1.89e-05    -  1.00e+00 1.00e+00f  1

Number of Iterations....: 16

                                   (scaled)                 (unscaled)
Objective...............:   4.3699741924533294e+02    1.7479896769813316e+04
Dual infeasibility......:   1.9719439297606611e-13    7.8877757190426445e-12
Constraint violation....:   1.1482370609883219e-15    1.7763568394002505e-15
Complementarity.........:   2.5251528673080018e-09    1.0100611469232006e-07
Overall NLP error.......:   2.5251528673080018e-09    1.0100611469232006e-07


Number of objective function evaluations             = 17
Number of objective gradient evaluations             = 17
Number of equality constraint evaluations            = 17
Number of inequality constraint evaluations          = 17
Number of equality constraint Jacobian evaluations   = 1
Number of inequality constraint Jacobian evaluations = 1
Number of Lagrangian Hessian evaluations             = 1
Total CPU secs in IPOPT (w/o function evaluations)   =      0.254
Total CPU secs in NLP function evaluations           =      0.208

EXIT: Optimal Solution Found.
Time to Solution........:1.1055619716644287
